unknown
(model
; cardinality of BoundSet is 3
(declare-sort BoundSet 0)
; rep: @uc_BoundSet_0
; rep: @uc_BoundSet_1
; rep: @uc_BoundSet_2
; cardinality of UnboundSet is 1
(declare-sort UnboundSet 0)
(declare-fun groundTerm_4 () UnboundSet)
(define-fun IsPlayerOnTeam ((BOUND_VARIABLE_423 BoundSet) (BOUND_VARIABLE_424 BoundSet)) Bool true)
(define-fun DidNotGrowPlayoffBeard ((BOUND_VARIABLE_423 BoundSet) (BOUND_VARIABLE_424 BoundSet)) Bool true)
(define-fun GetsInjured ((BOUND_VARIABLE_430 BoundSet)) Bool false)
)
sat
(model
; cardinality of BoundSet is 1
(declare-sort BoundSet 0)
; rep: @uc_BoundSet_0
; cardinality of UnboundSet is 1
(declare-sort UnboundSet 0)
(declare-fun groundTerm_6 () UnboundSet)
(define-fun IsPlayerOnTeam ((BOUND_VARIABLE_444 BoundSet) (BOUND_VARIABLE_445 BoundSet)) Bool true)
(define-fun DidNotGrowPlayoffBeard ((BOUND_VARIABLE_444 BoundSet) (BOUND_VARIABLE_445 BoundSet)) Bool true)
(define-fun GetsInjured ((BOUND_VARIABLE_451 BoundSet)) Bool false)
)
